
Gurobi 7.5.2 (linux64, Python) logging started Sun Jan 28 13:11:39 2018

Academic license - for non-commercial use only

Gurobi 7.5.2 (linux64, Python) logging started Sun Jan 28 13:15:51 2018

Academic license - for non-commercial use only

Gurobi 7.5.2 (linux64, Python) logging started Sun Jan 28 13:26:35 2018

Academic license - for non-commercial use only
Parameter MIPGap unchanged
   Value: 0.0001  Min: 0.0  Max: 1e+100  Default: 0.0001
Optimize a model with 836 rows, 1391 columns and 6066 nonzeros
Variable types: 1356 continuous, 35 integer (30 binary)
Coefficient statistics:
  Matrix range     [3e-02, 1e+04]
  Objective range  [5e-02, 1e+00]
  Bounds range     [1e+00, 1e+04]
  RHS range        [1e+00, 2e+03]
Presolve removed 743 rows and 956 columns
Presolve time: 0.01s
Presolved: 93 rows, 435 columns, 3011 nonzeros
Variable types: 430 continuous, 5 integer (0 binary)
Found heuristic solution: objective -1744.000000

Root relaxation: objective -2.544403e+02, 133 iterations, 0.00 seconds

    Nodes    |    Current Node    |     Objective Bounds      |     Work
 Expl Unexpl |  Obj  Depth IntInf | Incumbent    BestBd   Gap | It/Node Time

     0     0 -254.44031    0    4 -1744.0000 -254.44031  85.4%     -    0s
H    0     0                    -1640.000000 -254.44031  84.5%     -    0s
     0     0 -255.00768    0    4 -1640.0000 -255.00768  84.5%     -    0s
H    0     0                    -255.2560514 -255.00768  0.10%     -    0s
     0     0 -255.00768    0    4 -255.25605 -255.00768  0.10%     -    0s
     0     0 -255.14004    0    2 -255.25605 -255.14004  0.05%     -    0s
     0     1 -255.14004    0    2 -255.25605 -255.14004  0.05%     -    0s

Explored 7 nodes (158 simplex iterations) in 0.04 seconds
Thread count was 4 (of 4 available processors)

Solution count 3: -255.256 -1640 -1744 

Optimal solution found (tolerance 1.00e-04)
Best objective -2.552560513654e+02, best bound -2.552560513654e+02, gap 0.0000%
Changed value of parameter MIPGap to 0.01
   Prev: 0.0001  Min: 0.0  Max: 1e+100  Default: 0.0001
Optimize a model with 5244 rows, 5321 columns and 31088 nonzeros
Variable types: 4811 continuous, 510 integer (510 binary)
Coefficient statistics:
  Matrix range     [3e-02, 1e+04]
  Objective range  [5e-02, 1e+00]
  Bounds range     [1e+00, 1e+04]
  RHS range        [1e+00, 2e+03]
Presolve removed 2643 rows and 2597 columns
Presolve time: 0.03s
Presolved: 2601 rows, 2724 columns, 16416 nonzeros
Variable types: 2364 continuous, 360 integer (360 binary)

Root relaxation: objective -3.509372e+02, 7145 iterations, 0.48 seconds

    Nodes    |    Current Node    |     Objective Bounds      |     Work
 Expl Unexpl |  Obj  Depth IntInf | Incumbent    BestBd   Gap | It/Node Time

     0     0 -350.93723    0   42          - -350.93723      -     -    0s
H    0     0                    -742.6098822 -350.93723  52.7%     -    0s
     0     0 -352.12088    0   68 -742.60988 -352.12088  52.6%     -    0s
     0     0 -352.41873    0   68 -742.60988 -352.41873  52.5%     -    0s
     0     0 -352.51023    0   70 -742.60988 -352.51023  52.5%     -    0s
     0     0 -352.57342    0   68 -742.60988 -352.57342  52.5%     -    0s
     0     0 -352.57342    0   69 -742.60988 -352.57342  52.5%     -    0s
     0     0 -355.23717    0   84 -742.60988 -355.23717  52.2%     -    0s
     0     0 -355.91728    0   81 -742.60988 -355.91728  52.1%     -    0s
     0     0 -355.92318    0   76 -742.60988 -355.92318  52.1%     -    0s
     0     0 -355.92318    0   77 -742.60988 -355.92318  52.1%     -    0s
     0     0 -356.39505    0   70 -742.60988 -356.39505  52.0%     -    0s
     0     0 -356.42565    0   79 -742.60988 -356.42565  52.0%     -    0s
     0     0 -356.45206    0   81 -742.60988 -356.45206  52.0%     -    0s
     0     0 -356.45206    0   81 -742.60988 -356.45206  52.0%     -    0s
     0     0 -357.82470    0   95 -742.60988 -357.82470  51.8%     -    0s
     0     0 -357.82605    0   98 -742.60988 -357.82605  51.8%     -    1s
     0     0 -357.82701    0   99 -742.60988 -357.82701  51.8%     -    1s
     0     0 -358.59509    0   95 -742.60988 -358.59509  51.7%     -    1s
     0     0 -358.75788    0   97 -742.60988 -358.75788  51.7%     -    1s
     0     0 -358.83227    0   97 -742.60988 -358.83227  51.7%     -    1s
     0     0 -359.66335    0   94 -742.60988 -359.66335  51.6%     -    1s
H    0     0                    -692.4758173 -359.66335  48.1%     -    1s
     0     0 -359.81518    0   93 -692.47582 -359.81518  48.0%     -    1s
     0     0 -359.81518    0   96 -692.47582 -359.81518  48.0%     -    1s
     0     0 -360.93068    0  101 -692.47582 -360.93068  47.9%     -    1s
H    0     0                    -591.0343335 -360.93068  38.9%     -    1s
     0     0 -361.07601    0  105 -591.03433 -361.07601  38.9%     -    1s
     0     0 -361.07783    0  111 -591.03433 -361.07783  38.9%     -    1s
     0     0 -362.58315    0  104 -591.03433 -362.58315  38.7%     -    1s
     0     0 -362.64622    0  102 -591.03433 -362.64622  38.6%     -    1s
     0     0 -362.65838    0  111 -591.03433 -362.65838  38.6%     -    1s
     0     0 -362.65980    0  110 -591.03433 -362.65980  38.6%     -    1s
     0     0 -363.22891    0  104 -591.03433 -363.22891  38.5%     -    1s
H    0     0                    -586.1393074 -363.22891  38.0%     -    1s
     0     0 -363.38810    0  105 -586.13931 -363.38810  38.0%     -    1s
     0     0 -363.38810    0  104 -586.13931 -363.38810  38.0%     -    1s
     0     0 -363.99223    0  108 -586.13931 -363.99223  37.9%     -    1s
     0     0 -364.07422    0  101 -586.13931 -364.07422  37.9%     -    1s
     0     0 -364.07490    0  103 -586.13931 -364.07490  37.9%     -    1s
     0     0 -364.86484    0  104 -586.13931 -364.86484  37.8%     -    1s
H    0     0                    -584.3123884 -364.86484  37.6%     -    1s
     0     0 -364.94829    0  105 -584.31239 -364.94829  37.5%     -    1s
     0     0 -364.94919    0  105 -584.31239 -364.94919  37.5%     -    1s
     0     0 -365.66837    0  104 -584.31239 -365.66837  37.4%     -    1s
     0     0 -365.67980    0  111 -584.31239 -365.67980  37.4%     -    1s
     0     0 -365.68773    0  105 -584.31239 -365.68773  37.4%     -    1s
     0     0 -365.68773    0  106 -584.31239 -365.68773  37.4%     -    1s
     0     0 -366.56453    0  105 -584.31239 -366.56453  37.3%     -    1s
     0     0 -366.79355    0  112 -584.31239 -366.79355  37.2%     -    1s
     0     0 -366.79355    0  112 -584.31239 -366.79355  37.2%     -    1s
     0     0 -367.38203    0  114 -584.31239 -367.38203  37.1%     -    1s
H    0     0                    -583.3989288 -367.38203  37.0%     -    1s
     0     0 -367.42891    0  122 -583.39893 -367.42891  37.0%     -    1s
     0     0 -367.43727    0  121 -583.39893 -367.43727  37.0%     -    1s
     0     0 -367.44065    0  122 -583.39893 -367.44065  37.0%     -    1s
     0     0 -367.53314    0  115 -583.39893 -367.53314  37.0%     -    1s
     0     0 -367.53971    0  116 -583.39893 -367.53971  37.0%     -    2s
     0     0 -367.54909    0  115 -583.39893 -367.54909  37.0%     -    2s
     0     0 -367.54909    0  115 -583.39893 -367.54909  37.0%     -    2s
     0     2 -367.54909    0  113 -583.39893 -367.54909  37.0%     -    2s
H   27    26                    -582.4278810 -371.18104  36.3%   294    3s
H   59    61                    -563.2154687 -371.18104  34.1%   228    4s
    65    62 -481.21177   25   70 -563.21547 -371.18104  34.1%   222    5s
H   86    77                    -536.3759195 -371.18104  30.8%   185    5s
H  113   102                    -533.1426038 -371.18104  30.4%   162    5s
H  178   153                    -532.1580346 -373.46436  29.8%   132    5s
H  180   150                    -526.6588932 -373.46436  29.1%   132    5s
H  208   167                    -526.4840871 -373.46436  29.1%   138    6s
H  236   182                    -525.6943390 -373.46436  29.0%   151    6s
H  360   295                    -525.4701170 -375.10746  28.6%   169    8s
H  390   322                    -522.7187709 -375.10746  28.2%   170    9s
H  417   329                    -518.4751954 -375.10746  27.7%   168    9s
   490   386 -506.19165   47   55 -518.47520 -375.10894  27.7%   161   10s
   760   582 -454.36804   27  102 -518.47520 -380.41457  26.6%   144   15s
H  825   596                    -518.3712184 -396.53654  23.5%   179   19s
   842   610 -508.05405   27   70 -518.37122 -396.53654  23.5%   184   20s
H  897   588                    -507.6804813 -396.53654  21.9%   182   20s
H  898   560                    -506.2509010 -396.53654  21.7%   182   20s
H  900   535                    -500.6324258 -396.53654  20.8%   182   20s
  1367   645 -432.52342   23   86 -500.63243 -408.74890  18.4%   168   25s
H 1885   732                    -495.9797485 -411.04311  17.1%   156   29s
  2016   749 -479.56126   32   67 -495.97975 -412.53430  16.8%   156   30s
  2493   976 -434.43833   36   81 -495.97975 -415.24125  16.3%   154   35s
H 2513   976                    -495.8165199 -415.24125  16.3%   154   35s
H 2544  1004                    -495.6334520 -415.24125  16.2%   152   35s
H 2642  1051                    -495.5716909 -415.61328  16.1%   151   37s
  3058  1260 -458.84654   40   85 -495.57169 -417.82405  15.7%   149   40s
  3454  1446 -475.73268   34   68 -495.57169 -420.06983  15.2%   149   45s
  4146  1752 -459.38553   29   90 -495.57169 -422.08160  14.8%   148   50s
  4771  1990 -444.69667   28   69 -495.57169 -423.25976  14.6%   147   55s
  5535  2272 -478.13447   29   62 -495.57169 -425.17900  14.2%   146   60s
  6150  2515 -445.81701   29   95 -495.57169 -426.54047  13.9%   145   65s

Cutting planes:
  Gomory: 2
  Implied bound: 29
  Projected implied bound: 26
  MIR: 80
  Flow cover: 143
  Inf proof: 37

Explored 6432 nodes (943398 simplex iterations) in 67.66 seconds
Thread count was 4 (of 4 available processors)

Solution count 10: -495.572 -495.633 -495.817 ... -522.719

Solve interrupted
Best objective -4.955716908733e+02, best bound -4.269292496318e+02, gap 13.8512%
Changed value of parameter MIPGap to 0.01
   Prev: 0.0001  Min: 0.0  Max: 1e+100  Default: 0.0001
Optimize a model with 17544 rows, 11166 columns and 61277 nonzeros
Variable types: 4656 continuous, 6510 integer (3360 binary)
Coefficient statistics:
  Matrix range     [3e-02, 1e+04]
  Objective range  [5e-02, 1e+00]
  Bounds range     [1e+00, 1e+04]
  RHS range        [1e+00, 2e+04]
Presolve removed 17424 rows and 11094 columns
Presolve time: 0.01s
Presolved: 120 rows, 72 columns, 427 nonzeros
Variable types: 60 continuous, 12 integer (12 binary)

Root relaxation: objective -4.946678e+02, 47 iterations, 0.00 seconds

    Nodes    |    Current Node    |     Objective Bounds      |     Work
 Expl Unexpl |  Obj  Depth IntInf | Incumbent    BestBd   Gap | It/Node Time

*    0     0               0    -494.6678228 -494.66782  0.00%     -    0s

Explored 0 nodes (47 simplex iterations) in 0.03 seconds
Thread count was 4 (of 4 available processors)

Solution count 1: -494.668 

Optimal solution found (tolerance 1.00e-02)
Best objective -4.946678227570e+02, best bound -4.946678227570e+02, gap 0.0000%

Gurobi 7.5.2 (linux64, Python) logging started Sun Jan 28 13:27:52 2018

Academic license - for non-commercial use only

Gurobi 7.5.2 (linux64, Python) logging started Sun Jan 28 13:54:16 2018

Academic license - for non-commercial use only

Gurobi 7.5.2 (linux64, Python) logging started Sun Jan 28 13:56:13 2018

Academic license - for non-commercial use only

Gurobi 7.5.2 (linux64, Python) logging started Sun Jan 28 15:04:43 2018

Academic license - for non-commercial use only

Gurobi 7.5.2 (linux64, Python) logging started Sun Jan 28 19:24:17 2018

Academic license - for non-commercial use only

Gurobi 7.5.2 (linux64, Python) logging started Sun Jan 28 20:19:18 2018

Academic license - for non-commercial use only

Gurobi 7.5.2 (linux64, Python) logging started Sun Jan 28 20:21:01 2018

Academic license - for non-commercial use only

Gurobi 7.5.2 (linux64, Python) logging started Sun Jan 28 21:55:13 2018

Academic license - for non-commercial use only

Gurobi 7.5.2 (linux64, Python) logging started Sun Jan 28 21:59:59 2018

Academic license - for non-commercial use only

Gurobi 7.5.2 (linux64, Python) logging started Sun Jan 28 22:04:46 2018

Academic license - for non-commercial use only

Gurobi 7.5.2 (linux64, Python) logging started Mon Jan 29 02:24:16 2018

Academic license - for non-commercial use only

Gurobi 7.5.2 (linux64, Python) logging started Mon Jan 29 13:13:21 2018

Academic license - for non-commercial use only

Gurobi 7.5.2 (linux64, Python) logging started Mon Jan 29 13:13:49 2018

Academic license - for non-commercial use only
